-1	20	25	33	33	43	56	64	62	71	
20	-1	19	35	43	51	66	73	68	79	
25	19	-1	17	28	34	50	56	51	62	
33	35	17	-1	16	19	35	40	35	46	
33	43	28	16	-1	10	24	31	29	38	
43	51	34	19	10	-1	16	22	19	29	
56	66	50	35	24	16	-1	8	12	16	
64	73	56	40	31	22	8	-1	8	8	
62	68	51	35	29	19	12	8	-1	12	
71	79	62	46	38	29	16	8	12	-1	
